ATOMIC_SPECIES
Ti 47.88 Ti_ONCV_PBE-1.0.upf
O 16 O_ONCV_PBE-1.0.upf

NUMERICAL_ORBITAL
Ti_gga_10au_100Ry_4s2p2d1f.orb
O_gga_10au_100Ry_2s2p1d.orb

LATTICE_CONSTANT
28.8863514614

LATTICE_VECTORS
1 0 0 #latvec1
0 0.25 0 #latvec2
0 0 1.96258 #latvec3

ATOMIC_POSITIONS
Cartesian

Ti #label
0 #magnetism
13 #number of atoms
0.62001456293  0.123023853231  0.754712023057  m  1  1  1  v  0.00015130840249  4.45433561651e-06  0.000130055632543
0.4586798874  0.128290346572  0.593841013854  m  1  1  1  v  0.000211312248599  -0.000175958976956  0.000102961493557
0.79270784435  0.121362143221  0.591816564879  m  1  1  1  v  -4.71315609118e-05  7.1537172723e-06  9.3211020248e-05
0.236074527203  0.118523789419  0.592458475084  m  1  1  1  v  -3.7465856414e-05  7.26217260588e-05  3.66812096347e-05
0.0129615321064  0.123339509552  0.58754214345  m  1  1  1  v  -0.000100487020252  4.60956587325e-05  -9.728407649e-06
0.500000243508  4.11500877817e-09  0.430276291693  m  0  0  0  v  0  0  0
0.250000121758  4.11500877817e-09  0.430276291693  m  0  0  0  v  0  0  0
0.750000365259  4.11500877817e-09  0.430276291693  m  0  0  0  v  0  0  0
0  4.11500877817e-09  0.430276291693  m  0  0  0  v  0  0  0
0.625000304386  4.11500877817e-09  0.271359533679  m  0  0  0  v  0  0  0
0.375000182628  4.11500877817e-09  0.271359533679  m  0  0  0  v  0  0  0
0.125000060878  4.11500877817e-09  0.271359533679  m  0  0  0  v  0  0  0
0.875000426136  4.11500877817e-09  0.271359533679  m  0  0  0  v  0  0  0

O #label
0 #magnetism
26 #number of atoms
0.623226204639  0.012233264624  0.807019383274  m  1  1  1  v  -0.000103123599256  0.000394279193326  0.00033203082941
0.712488312936  0.12093753876  0.681356594739  m  1  1  1  v  -1.60292157476e-05  -0.000231643902184  -4.29607506944e-05
0.532482885248  0.123621004357  0.681988658183  m  1  1  1  v  -0.000110457001712  -0.00017290338766  0.000286937857064
0.126250459827  0.128379218324  0.633279717251  m  1  1  1  v  3.7401167022e-05  0.000170143689845  0.000226643530109
0.347361264303  0.129102123312  0.63762855959  m  1  1  1  v  2.61652250266e-05  0.000166940267775  -4.32284248345e-05
0.903395603373  0.12751726895  0.633081175351  m  1  1  1  v  -0.00040848484147  0.000276454568675  7.75795679304e-05
0.767226045696  0.000649129077339  0.553602202416  m  1  1  1  v  -0.000176066669357  8.62138856105e-05  -1.03341244861e-05
0.500000243508  0.125000060878  0.457935573321  m  0  0  0  v  0  0  0
0.250000121758  0.125000060878  0.457935573321  m  0  0  0  v  0  0  0
0.750000365259  0.125000060878  0.457935573321  m  0  0  0  v  0  0  0
0  0.125000060878  0.457935573321  m  0  0  0  v  0  0  0
0.625000304386  0  0.402616970818  m  0  0  0  v  0  0  0
0.375000182628  0  0.402616970818  m  0  0  0  v  0  0  0
0.125000060878  0  0.402616970818  m  0  0  0  v  0  0  0
0.875000426136  0  0.402616970818  m  0  0  0  v  0  0  0
0.500000243508  0  0.299018854558  m  0  0  0  v  0  0  0
0.250000121758  0  0.299018854558  m  0  0  0  v  0  0  0
0.750000365259  0  0.299018854558  m  0  0  0  v  0  0  0
0  0  0.299018854558  m  0  0  0  v  0  0  0
0.625000304386  0.125000060878  0.243700232428  m  0  0  0  v  0  0  0
0.375000182628  0.125000060878  0.243700232428  m  0  0  0  v  0  0  0
0.125000060878  0.125000060878  0.243700232428  m  0  0  0  v  0  0  0
0.875000426136  0.125000060878  0.243700232428  m  0  0  0  v  0  0  0
0.232546139139  0.000523421810997  0.550885460545  m  1  1  1  v  0.000135524962268  0.000246278738205  7.32550627225e-05
0.0121650017874  0.249611105777  0.551051319041  m  1  1  1  v  7.20532835246e-05  1.82002068934e-06  -6.1211831266e-07
0.474419632401  0.249413378395  0.548655891826  m  1  1  1  v  0.000142697265225  0.000152859106456  4.94794962656e-05
